(set-logic QF_NRA)
; benchmark generated from python API
(set-info :status unknown)
(declare-fun v1y () Real)
(declare-fun oy () Real)
(declare-fun v1x () Real)
(declare-fun R2 () Real)
(declare-fun y1y () Real)
(declare-fun xy () Real)
(declare-fun y1x () Real)
(declare-fun xx () Real)
(declare-fun rho2 () Real)
(declare-fun y2y () Real)
(declare-fun y2x () Real)
(declare-fun b1y () Real)
(declare-fun b1x () Real)
(declare-fun b2y () Real)
(declare-fun b2x () Real)
(assert
 (let ((?x126 (* (- 1.0) v1x)))
 (let ((?x388 (* (- 1.0) R2)))
 (let ((?x300 (+ (+ (+ (+ (/ 1.0 4.0) (* oy oy)) (* v1x v1x)) (* v1y v1y)) ?x388)))
 (= (+ (+ ?x300 ?x126) (* (* (- 2.0) oy) v1y)) 0.0)))))
(assert
 (= (+ (+ (/ 1.0 4.0) (* oy oy)) (* (- 1.0) R2)) 0.0))
(assert
 (let ((?x188 (* (- 1.0) rho2)))
 (let ((?x252 (* y1y y1y)))
 (let ((?x174 (+ (+ (+ (+ (* xx xx) (* xy xy)) (* y1x y1x)) ?x252) ?x188)))
 (= (+ (+ ?x174 (* (* (- 2.0) xx) y1x)) (* (* (- 2.0) xy) y1y)) 0.0)))))
(assert
 (let ((?x188 (* (- 1.0) rho2)))
 (let ((?x464 (* y2y y2y)))
 (let ((?x24 (+ (+ (+ (+ (* xx xx) (* xy xy)) (* y2x y2x)) ?x464) ?x188)))
 (= (+ (+ ?x24 (* (* (- 2.0) xx) y2x)) (* (* (- 2.0) xy) y2y)) 0.0)))))
(assert
 (let ((?x188 (* (- 1.0) rho2)))
 (let ((?x285 (* xy xy)))
 (let ((?x302 (+ (+ (+ (+ (* b1x b1x) (* b1y b1y)) (* xx xx)) ?x285) ?x188)))
 (= (+ (+ ?x302 (* (* (- 2.0) b1x) xx)) (* (* (- 2.0) b1y) xy)) 0.0)))))
(assert
 (let ((?x188 (* (- 1.0) rho2)))
 (let ((?x285 (* xy xy)))
 (let ((?x455 (+ (+ (+ (+ (* b2x b2x) (* b2y b2y)) (* xx xx)) ?x285) ?x188)))
 (= (+ (+ ?x455 (* (* (- 2.0) b2x) xx)) (* (* (- 2.0) b2y) xy)) 0.0)))))
(assert
 (let ((?x257 (+ (+ (+ (+ (- (/ 1.0 4.0)) R2) xx) (* (- 1.0) (* oy oy))) (* (- 1.0) (* xx xx)))))
 (>= (+ (+ ?x257 (* (- 1.0) (* xy xy))) (* (* 2.0 oy) xy)) 0.0)))
(assert
 (let ((?x144 (+ (+ (+ (+ (- (/ 1.0 4.0)) R2) y1x) (* (- 1.0) (* oy oy))) (* (- 1.0) (* y1x y1x)))))
 (>= (+ (+ ?x144 (* (- 1.0) (* y1y y1y))) (* (* 2.0 oy) y1y)) 0.0)))
(assert
 (let ((?x423 (+ (+ (+ (+ (- (/ 1.0 4.0)) R2) y2x) (* (- 1.0) (* oy oy))) (* (- 1.0) (* y2x y2x)))))
 (>= (+ (+ ?x423 (* (- 1.0) (* y2y y2y))) (* (* 2.0 oy) y2y)) 0.0)))
(assert
 (let ((?x56 (* oy oy)))
 (let ((?x67 (* (- 1.0) ?x56)))
 (let ((?x176 (+ (+ (+ (+ (- (/ 1.0 4.0)) R2) b1x) (* (- 1.0) (* b1x b1x))) (* (- 1.0) (* b1y b1y)))))
 (>= (+ (+ ?x176 ?x67) (* (* 2.0 b1y) oy)) 0.0)))))
(assert
 (let ((?x56 (* oy oy)))
 (let ((?x67 (* (- 1.0) ?x56)))
 (let ((?x435 (+ (+ (+ (+ (- (/ 1.0 4.0)) R2) b2x) (* (- 1.0) (* b2x b2x))) (* (- 1.0) (* b2y b2y)))))
 (>= (+ (+ ?x435 ?x67) (* (* 2.0 b2y) oy)) 0.0)))))
(assert
 (>= (+ (+ (* v1x v1x) (* v1y v1y)) (* (- 1.0) v1x)) 0.0))
(assert
 (>= v1x 0.0))
(assert
 (>= (+ 1.0 (* (- 1.0) v1x)) 0.0))
(assert
 (> R2 0.0))
(assert
 (> rho2 0.0))
(assert
 (let ((?x226 (* (- 1.0) v1y)))
 (let ((?x69 (* ?x226 xy)))
 (> ?x69 0.0))))
(assert
 (let ((?x406 (+ (+ (* v1y v1y) (* (* (- 1.0) v1y) xy)) (* (* (- 1.0) xx) (* v1y v1y)))))
 (> (+ ?x406 (* (* v1x v1y) xy)) 0.0)))
(assert
 (> (+ (* xx (* v1y v1y)) (* (* (* (- 1.0) v1x) v1y) xy)) 0.0))
(assert
 (let ((?x226 (* (- 1.0) v1y)))
 (let ((?x468 (* ?x226 y1y)))
 (> ?x468 0.0))))
(assert
 (let ((?x198 (+ (+ (* v1y v1y) (* (* (- 1.0) v1y) y1y)) (* (* (- 1.0) y1x) (* v1y v1y)))))
 (> (+ ?x198 (* (* v1x v1y) y1y)) 0.0)))
(assert
 (> (+ (* y1x (* v1y v1y)) (* (* (* (- 1.0) v1x) v1y) y1y)) 0.0))
(assert
 (let ((?x226 (* (- 1.0) v1y)))
 (let ((?x243 (* ?x226 y2y)))
 (> ?x243 0.0))))
(assert
 (let ((?x374 (+ (+ (* v1y v1y) (* (* (- 1.0) v1y) y2y)) (* (* (- 1.0) y2x) (* v1y v1y)))))
 (> (+ ?x374 (* (* v1x v1y) y2y)) 0.0)))
(assert
 (> (+ (* y2x (* v1y v1y)) (* (* (* (- 1.0) v1x) v1y) y2y)) 0.0))
(assert
 (> (* b1y v1y) 0.0))
(assert
 (let ((?x286 (* b1y v1x)))
 (let ((?x348 (* ?x286 v1y)))
 (let ((?x160 (+ (+ (* v1y v1y) (* (* (- 1.0) b1x) (* v1y v1y))) (* (* (- 1.0) b1y) v1y))))
 (> (+ ?x160 ?x348) 0.0)))))
(assert
 (> (+ (* (* (- 1.0) b1x) (* v1y v1y)) (* (* b1y v1x) v1y)) 0.0))
(assert
 (> (* b2y v1y) 0.0))
(assert
 (let ((?x366 (* b2y v1x)))
 (let ((?x418 (* ?x366 v1y)))
 (let ((?x359 (+ (+ (* v1y v1y) (* (* (- 1.0) b2x) (* v1y v1y))) (* (* (- 1.0) b2y) v1y))))
 (> (+ ?x359 ?x418) 0.0)))))
(assert
 (> (+ (* (* (- 1.0) b2x) (* v1y v1y)) (* (* b2y v1x) v1y)) 0.0))
(assert
 (> (+ (* xy y1x) (* (* (- 1.0) xx) y1y)) 0.0))
(assert
 (> (+ (* y1x y2y) (* (* (- 1.0) y1y) y2x)) 0.0))
(assert
 (let ((?x306 (* (- 1.0) y1y)))
 (> ?x306 0.0)))
(assert
 (> (+ (* v1y y1x) (* (* (- 1.0) v1x) y1y)) 0.0))
(assert
 (> (+ (* b1y y1x) (* (* (- 1.0) b1x) y1y)) 0.0))
(assert
 (> (+ (* b2y y1x) (* (* (- 1.0) b2x) y1y)) 0.0))
(assert
 (> (+ (* xx y2y) (* (* (- 1.0) xy) y2x)) 0.0))
(assert
 (let ((?x219 (* (- 1.0) xy)))
 (> ?x219 0.0)))
(assert
 (> (+ (* v1y xx) (* (* (- 1.0) v1x) xy)) 0.0))
(assert
 (> (+ (* b1y xx) (* (* (- 1.0) b1x) xy)) 0.0))
(assert
 (> (+ (* b2y xx) (* (* (- 1.0) b2x) xy)) 0.0))
(assert
 (let ((?x318 (* (- 1.0) y2y)))
 (> ?x318 0.0)))
(assert
 (> (+ (* v1y y2x) (* (* (- 1.0) v1x) y2y)) 0.0))
(assert
 (> (+ (* b1y y2x) (* (* (- 1.0) b1x) y2y)) 0.0))
(assert
 (> (+ (* b2y y2x) (* (* (- 1.0) b2x) y2y)) 0.0))
(assert
 (> v1y 0.0))
(assert
 (> b1y 0.0))
(assert
 (> b2y 0.0))
(assert
 (> (+ (* b1y v1x) (* (* (- 1.0) b1x) v1y)) 0.0))
(assert
 (> (+ (* b2y v1x) (* (* (- 1.0) b2x) v1y)) 0.0))
(assert
 (> (+ (* b1x b2y) (* (* (- 1.0) b1y) b2x)) 0.0))
(assert
 (let ((?x219 (* (- 1.0) xy)))
 (let ((?x377 (* ?x219 y2x)))
 (let ((?x161 (* (- 1.0) xx)))
 (let ((?x163 (* ?x161 y1y)))
 (let ((?x21 (+ (+ (+ (+ (* xx y2y) (* xy y1x)) (* y1y y2x)) ?x163) ?x377)))
 (> (+ ?x21 (* (* (- 1.0) y1x) y2y)) 0.0)))))))
(assert
 (let ((?x161 (* (- 1.0) xx)))
 (let ((?x163 (* ?x161 y1y)))
 (> (+ (+ (+ y1y (* (- 1.0) xy)) (* xy y1x)) ?x163) 0.0))))
(assert
 (let ((?x161 (* (- 1.0) xx)))
 (let ((?x163 (* ?x161 y1y)))
 (let ((?x226 (* (- 1.0) v1y)))
 (let ((?x102 (* ?x226 y1x)))
 (let ((?x126 (* (- 1.0) v1x)))
 (let ((?x393 (* ?x126 xy)))
 (let ((?x39 (+ (+ (+ (+ (* v1x y1y) (* v1y xx)) (* xy y1x)) ?x393) ?x102)))
 (> (+ ?x39 ?x163) 0.0)))))))))
(assert
 (let ((?x161 (* (- 1.0) xx)))
 (let ((?x163 (* ?x161 y1y)))
 (let ((?x477 (* (- 1.0) b1y)))
 (let ((?x182 (* ?x477 y1x)))
 (let ((?x412 (* (- 1.0) b1x)))
 (let ((?x381 (* ?x412 xy)))
 (let ((?x62 (+ (+ (+ (+ (* b1x y1y) (* b1y xx)) (* xy y1x)) ?x381) ?x182)))
 (> (+ ?x62 ?x163) 0.0)))))))))
(assert
 (let ((?x161 (* (- 1.0) xx)))
 (let ((?x163 (* ?x161 y1y)))
 (let ((?x402 (* (- 1.0) b2y)))
 (let ((?x346 (* ?x402 y1x)))
 (let ((?x395 (* (- 1.0) b2x)))
 (let ((?x367 (* ?x395 xy)))
 (let ((?x124 (+ (+ (+ (+ (* b2x y1y) (* b2y xx)) (* xy y1x)) ?x367) ?x346)))
 (> (+ ?x124 ?x163) 0.0)))))))))
(assert
 (let ((?x306 (* (- 1.0) y1y)))
 (let ((?x192 (* ?x306 y2x)))
 (> (+ (+ (+ y1y (* (- 1.0) y2y)) (* y1x y2y)) ?x192) 0.0))))
(assert
 (let ((?x306 (* (- 1.0) y1y)))
 (let ((?x192 (* ?x306 y2x)))
 (let ((?x226 (* (- 1.0) v1y)))
 (let ((?x102 (* ?x226 y1x)))
 (let ((?x126 (* (- 1.0) v1x)))
 (let ((?x331 (* ?x126 y2y)))
 (let ((?x139 (+ (+ (+ (+ (* v1x y1y) (* v1y y2x)) (* y1x y2y)) ?x331) ?x102)))
 (> (+ ?x139 ?x192) 0.0)))))))))
(assert
 (let ((?x306 (* (- 1.0) y1y)))
 (let ((?x192 (* ?x306 y2x)))
 (let ((?x477 (* (- 1.0) b1y)))
 (let ((?x182 (* ?x477 y1x)))
 (let ((?x412 (* (- 1.0) b1x)))
 (let ((?x297 (* ?x412 y2y)))
 (let ((?x105 (+ (+ (+ (+ (* b1x y1y) (* b1y y2x)) (* y1x y2y)) ?x297) ?x182)))
 (> (+ ?x105 ?x192) 0.0)))))))))
(assert
 (let ((?x306 (* (- 1.0) y1y)))
 (let ((?x192 (* ?x306 y2x)))
 (let ((?x402 (* (- 1.0) b2y)))
 (let ((?x346 (* ?x402 y1x)))
 (let ((?x395 (* (- 1.0) b2x)))
 (let ((?x218 (* ?x395 y2y)))
 (let ((?x83 (+ (+ (+ (+ (* b2x y1y) (* b2y y2x)) (* y1x y2y)) ?x218) ?x346)))
 (> (+ ?x83 ?x192) 0.0)))))))))
(assert
 (let ((?x226 (* (- 1.0) v1y)))
 (let ((?x102 (* ?x226 y1x)))
 (> (+ (+ (+ v1y (* (- 1.0) y1y)) (* v1x y1y)) ?x102) 0.0))))
(assert
 (let ((?x477 (* (- 1.0) b1y)))
 (let ((?x182 (* ?x477 y1x)))
 (> (+ (+ (+ b1y (* (- 1.0) y1y)) (* b1x y1y)) ?x182) 0.0))))
(assert
 (let ((?x402 (* (- 1.0) b2y)))
 (let ((?x346 (* ?x402 y1x)))
 (> (+ (+ (+ b2y (* (- 1.0) y1y)) (* b2x y1y)) ?x346) 0.0))))
(assert
 (let ((?x126 (* (- 1.0) v1x)))
 (let ((?x453 (* ?x126 y1y)))
 (let ((?x477 (* (- 1.0) b1y)))
 (let ((?x182 (* ?x477 y1x)))
 (let ((?x412 (* (- 1.0) b1x)))
 (let ((?x229 (* ?x412 v1y)))
 (let ((?x103 (+ (+ (+ (+ (* b1x y1y) (* b1y v1x)) (* v1y y1x)) ?x229) ?x182)))
 (> (+ ?x103 ?x453) 0.0)))))))))
(assert
 (let ((?x126 (* (- 1.0) v1x)))
 (let ((?x453 (* ?x126 y1y)))
 (let ((?x402 (* (- 1.0) b2y)))
 (let ((?x346 (* ?x402 y1x)))
 (let ((?x395 (* (- 1.0) b2x)))
 (let ((?x156 (* ?x395 v1y)))
 (let ((?x314 (+ (+ (+ (+ (* b2x y1y) (* b2y v1x)) (* v1y y1x)) ?x156) ?x346)))
 (> (+ ?x314 ?x453) 0.0)))))))))
(assert
 (let ((?x402 (* (- 1.0) b2y)))
 (let ((?x346 (* ?x402 y1x)))
 (let ((?x477 (* (- 1.0) b1y)))
 (let ((?x196 (* ?x477 b2x)))
 (let ((?x412 (* (- 1.0) b1x)))
 (let ((?x311 (* ?x412 y1y)))
 (let ((?x91 (+ (+ (+ (+ (* b1x b2y) (* b1y y1x)) (* b2x y1y)) ?x311) ?x196)))
 (> (+ ?x91 ?x346) 0.0)))))))))
(assert
 (let ((?x219 (* (- 1.0) xy)))
 (let ((?x377 (* ?x219 y2x)))
 (> (+ (+ (+ xy (* (- 1.0) y2y)) (* xx y2y)) ?x377) 0.0))))
(assert
 (let ((?x219 (* (- 1.0) xy)))
 (let ((?x377 (* ?x219 y2x)))
 (let ((?x226 (* (- 1.0) v1y)))
 (let ((?x242 (* ?x226 xx)))
 (let ((?x126 (* (- 1.0) v1x)))
 (let ((?x331 (* ?x126 y2y)))
 (let ((?x255 (+ (+ (+ (+ (* v1x xy) (* v1y y2x)) (* xx y2y)) ?x331) ?x242)))
 (> (+ ?x255 ?x377) 0.0)))))))))
(assert
 (let ((?x219 (* (- 1.0) xy)))
 (let ((?x377 (* ?x219 y2x)))
 (let ((?x477 (* (- 1.0) b1y)))
 (let ((?x20 (* ?x477 xx)))
 (let ((?x412 (* (- 1.0) b1x)))
 (let ((?x297 (* ?x412 y2y)))
 (let ((?x360 (+ (+ (+ (+ (* b1x xy) (* b1y y2x)) (* xx y2y)) ?x297) ?x20)))
 (> (+ ?x360 ?x377) 0.0)))))))))
(assert
 (let ((?x219 (* (- 1.0) xy)))
 (let ((?x377 (* ?x219 y2x)))
 (let ((?x402 (* (- 1.0) b2y)))
 (let ((?x379 (* ?x402 xx)))
 (let ((?x395 (* (- 1.0) b2x)))
 (let ((?x218 (* ?x395 y2y)))
 (let ((?x111 (+ (+ (+ (+ (* b2x xy) (* b2y y2x)) (* xx y2y)) ?x218) ?x379)))
 (> (+ ?x111 ?x377) 0.0)))))))))
(assert
 (let ((?x226 (* (- 1.0) v1y)))
 (let ((?x242 (* ?x226 xx)))
 (> (+ (+ (+ v1y (* (- 1.0) xy)) (* v1x xy)) ?x242) 0.0))))
(assert
 (let ((?x477 (* (- 1.0) b1y)))
 (let ((?x20 (* ?x477 xx)))
 (> (+ (+ (+ b1y (* (- 1.0) xy)) (* b1x xy)) ?x20) 0.0))))
(assert
 (let ((?x402 (* (- 1.0) b2y)))
 (let ((?x379 (* ?x402 xx)))
 (> (+ (+ (+ b2y (* (- 1.0) xy)) (* b2x xy)) ?x379) 0.0))))
(assert
 (let ((?x126 (* (- 1.0) v1x)))
 (let ((?x393 (* ?x126 xy)))
 (let ((?x477 (* (- 1.0) b1y)))
 (let ((?x20 (* ?x477 xx)))
 (let ((?x412 (* (- 1.0) b1x)))
 (let ((?x229 (* ?x412 v1y)))
 (let ((?x79 (+ (+ (+ (+ (* b1x xy) (* b1y v1x)) (* v1y xx)) ?x229) ?x20)))
 (> (+ ?x79 ?x393) 0.0)))))))))
(assert
 (let ((?x126 (* (- 1.0) v1x)))
 (let ((?x393 (* ?x126 xy)))
 (let ((?x402 (* (- 1.0) b2y)))
 (let ((?x379 (* ?x402 xx)))
 (let ((?x395 (* (- 1.0) b2x)))
 (let ((?x156 (* ?x395 v1y)))
 (let ((?x238 (+ (+ (+ (+ (* b2x xy) (* b2y v1x)) (* v1y xx)) ?x156) ?x379)))
 (> (+ ?x238 ?x393) 0.0)))))))))
(assert
 (let ((?x402 (* (- 1.0) b2y)))
 (let ((?x379 (* ?x402 xx)))
 (let ((?x477 (* (- 1.0) b1y)))
 (let ((?x196 (* ?x477 b2x)))
 (let ((?x412 (* (- 1.0) b1x)))
 (let ((?x381 (* ?x412 xy)))
 (let ((?x357 (+ (+ (+ (+ (* b1x b2y) (* b1y xx)) (* b2x xy)) ?x381) ?x196)))
 (> (+ ?x357 ?x379) 0.0)))))))))
(assert
 (let ((?x89 (+ (+ (+ v1y (* (- 1.0) y2y)) (* v1x y2y)) (* (* (- 1.0) v1y) y2x))))
 (> ?x89 0.0)))
(assert
 (let ((?x477 (* (- 1.0) b1y)))
 (let ((?x81 (* ?x477 y2x)))
 (> (+ (+ (+ b1y (* (- 1.0) y2y)) (* b1x y2y)) ?x81) 0.0))))
(assert
 (let ((?x402 (* (- 1.0) b2y)))
 (let ((?x61 (* ?x402 y2x)))
 (> (+ (+ (+ b2y (* (- 1.0) y2y)) (* b2x y2y)) ?x61) 0.0))))
(assert
 (let ((?x126 (* (- 1.0) v1x)))
 (let ((?x331 (* ?x126 y2y)))
 (let ((?x477 (* (- 1.0) b1y)))
 (let ((?x81 (* ?x477 y2x)))
 (let ((?x412 (* (- 1.0) b1x)))
 (let ((?x229 (* ?x412 v1y)))
 (let ((?x60 (+ (+ (+ (+ (* b1x y2y) (* b1y v1x)) (* v1y y2x)) ?x229) ?x81)))
 (> (+ ?x60 ?x331) 0.0)))))))))
(assert
 (let ((?x126 (* (- 1.0) v1x)))
 (let ((?x331 (* ?x126 y2y)))
 (let ((?x402 (* (- 1.0) b2y)))
 (let ((?x61 (* ?x402 y2x)))
 (let ((?x395 (* (- 1.0) b2x)))
 (let ((?x156 (* ?x395 v1y)))
 (let ((?x55 (+ (+ (+ (+ (* b2x y2y) (* b2y v1x)) (* v1y y2x)) ?x156) ?x61)))
 (> (+ ?x55 ?x331) 0.0)))))))))
(assert
 (let ((?x402 (* (- 1.0) b2y)))
 (let ((?x61 (* ?x402 y2x)))
 (let ((?x477 (* (- 1.0) b1y)))
 (let ((?x196 (* ?x477 b2x)))
 (let ((?x412 (* (- 1.0) b1x)))
 (let ((?x297 (* ?x412 y2y)))
 (let ((?x46 (+ (+ (+ (+ (* b1x b2y) (* b1y y2x)) (* b2x y2y)) ?x297) ?x196)))
 (> (+ ?x46 ?x61) 0.0)))))))))
(assert
 (let ((?x412 (* (- 1.0) b1x)))
 (let ((?x229 (* ?x412 v1y)))
 (> (+ (+ (+ v1y (* (- 1.0) b1y)) (* b1y v1x)) ?x229) 0.0))))
(assert
 (let ((?x395 (* (- 1.0) b2x)))
 (let ((?x156 (* ?x395 v1y)))
 (> (+ (+ (+ v1y (* (- 1.0) b2y)) (* b2y v1x)) ?x156) 0.0))))
(assert
 (let ((?x477 (* (- 1.0) b1y)))
 (let ((?x196 (* ?x477 b2x)))
 (> (+ (+ (+ b1y (* (- 1.0) b2y)) (* b1x b2y)) ?x196) 0.0))))
(assert
 (let ((?x477 (* (- 1.0) b1y)))
(let ((?x196 (* ?x477 b2x)))
(let ((?x412 (* (- 1.0) b1x)))
(let ((?x229 (* ?x412 v1y)))
(let ((?x399 (+ (+ (+ (+ (* b1x b2y) (* b1y v1x)) (* b2x v1y)) ?x229) ?x196)))
(> (+ ?x399 (* (* (- 1.0) b2y) v1x)) 0.0)))))))
(check-sat)
